(set-logic LIA)
(declare-var size Int)
(declare-var i Int)
(declare-var sn Int)
(declare-var v1 Int)
(declare-var v2 Int)
(declare-var v3 Int)
(declare-var i! Int)
(declare-var sn! Int)
(declare-var size! Int)
(declare-var v1! Int)
(declare-var v2! Int)
(declare-var v3! Int)
(synth-fun inv-f((parameter0 Int)(parameter1 Int)(parameter2 Int)(parameter3 Int)(parameter4 Int)(parameter5 Int))Bool) 
(constraint (=> (and (= sn 0) (= i 1) )(inv-f i sn size v1 v2 v3 )))
(constraint (=> (and (inv-f i sn size v1 v2 v3 ) (and (= size! size) (and (= i! (+ i 1 )) (and (<= i size) (= sn! (+ sn 1 )) ) ) ) )(inv-f i! sn! size! v1! v2! v3! )))
(constraint (=> (inv-f i sn size v1 v2 v3 )(or (<= i size) (or (= sn size) (= sn 0) ) )))
(check-synth)

